Minimize
  2a1 + 2a2 + 3a3 + 5a4
Subject To
  c0: x00 + x01 = 1
  c1: x11 + x12 = 1
  c2: x21 + x22 + x23 = 1
  c3: x31 + x32 + x33 + x34 = 1
  c4: x42 + x43 = 1
  c5: x52 + x53 + x54 = 1
  c6: x62 + x63 + x64 + x65 = 1
  c7: x73 + x74 + x75 = 1
  c8: x83 + x84 = 1
  c9: x94 + x95 = 1
  c10: x105 + x106 = 1
Integer
  a1 a2 a3 a4
End
